0 2
0 7
0 9
0 10
0 13
0 15
1 6
1 8
1 11
1 14
2 6
2 11
2 15
3 4
3 6
3 10
3 14
3 15
4 6
4 9
4 14
4 15
5 6
5 9
5 10
5 12
5 14
5 15
6 7
6 14
7 12
7 13
7 14
8 9
8 10
8 11
8 13
9 12
9 13
10 12
10 15
11 12
11 14
12 14
13 14
